\* Has_a_tree_diagram_Problem *\
Minimize
OBJ: __dummy
Subject To
_C1: distance_0_2 - distance_0_3 - distance_1_2 + distance_1_3 = 0
_C10: distance_0_4 - distance_0_5 - distance_1_4 + distance_1_5 = 0
_C100: - distance_3_1 + distance_3_3 <= -1
_C101: distance_3_1 - distance_4_1 + distance_4_3 >= 0
_C102: - distance_4_1 + distance_4_3 <= -1
_C103: distance_3_1 - distance_5_1 + distance_5_3 >= 0
_C104: - distance_5_1 + distance_5_3 <= -1
_C105: - distance_0_1 + distance_0_4 + distance_4_1 >= 0
_C106: - distance_1_1 + distance_1_4 + distance_4_1 >= 0
_C107: - distance_2_1 + distance_2_4 + distance_4_1 >= 0
_C108: - distance_2_1 + distance_2_4 <= -1
_C109: - distance_3_1 + distance_3_4 + distance_4_1 >= 0
_C11: distance_0_4 - distance_0_5 - distance_2_4 + distance_2_5 = 0
_C110: - distance_3_1 + distance_3_4 <= -1
_C111: 0 distance_4_1 + distance_4_4 >= 0
_C112: - distance_4_1 + distance_4_4 <= -1
_C113: distance_4_1 - distance_5_1 + distance_5_4 >= 0
_C114: - distance_5_1 + distance_5_4 <= -1
_C115: - distance_0_1 + distance_0_5 + distance_5_1 >= 0
_C116: - distance_1_1 + distance_1_5 + distance_5_1 >= 0
_C117: - distance_2_1 + distance_2_5 + distance_5_1 >= 0
_C118: - distance_3_1 + distance_3_5 + distance_5_1 >= 0
_C119: - distance_3_1 + distance_3_5 <= -1
_C12: distance_1_4 - distance_1_5 - distance_2_4 + distance_2_5 = 0
_C120: - distance_4_1 + distance_4_5 + distance_5_1 >= 0
_C121: - distance_4_1 + distance_4_5 <= -1
_C122: 0 distance_5_1 + distance_5_5 >= 0
_C123: - distance_5_1 + distance_5_5 <= -1
_C124: distance_0_0 + 0 distance_0_2 >= 0
_C125: distance_0_0 - distance_0_2 <= -1
_C126: distance_0_2 + distance_1_0 - distance_1_2 >= 0
_C127: distance_1_0 - distance_1_2 <= -1
_C128: distance_0_2 + distance_2_0 - distance_2_2 >= 0
_C129: distance_0_2 + distance_3_0 - distance_3_2 >= 0
_C13: distance_0_4 - distance_0_5 - distance_3_4 + distance_3_5 = 0
_C130: distance_0_2 + distance_4_0 - distance_4_2 >= 0
_C131: distance_0_2 + distance_5_0 - distance_5_2 >= 0
_C132: distance_0_1 - distance_0_2 + distance_1_2 >= 0
_C133: distance_0_1 - distance_0_2 <= -1
_C134: distance_1_1 + 0 distance_1_2 >= 0
_C135: distance_1_1 - distance_1_2 <= -1
_C136: distance_1_2 + distance_2_1 - distance_2_2 >= 0
_C137: distance_1_2 + distance_3_1 - distance_3_2 >= 0
_C138: distance_1_2 + distance_4_1 - distance_4_2 >= 0
_C139: distance_1_2 + distance_5_1 - distance_5_2 >= 0
_C14: distance_1_4 - distance_1_5 - distance_3_4 + distance_3_5 = 0
_C140: 0 distance_0_2 + distance_2_2 >= 0
_C141: 0 distance_1_2 + distance_2_2 >= 0
_C142: distance_2_2 >= 0
_C143: distance_2_2 + 0 distance_3_2 >= 0
_C144: distance_2_2 + 0 distance_4_2 >= 0
_C145: distance_2_2 + 0 distance_5_2 >= 0
_C146: - distance_0_2 + distance_0_3 + distance_3_2 >= 0
_C147: - distance_1_2 + distance_1_3 + distance_3_2 >= 0
_C148: - distance_2_2 + distance_2_3 + distance_3_2 >= 0
_C149: 0 distance_3_2 + distance_3_3 >= 0
_C15: distance_2_4 - distance_2_5 - distance_3_4 + distance_3_5 = 0
_C150: - distance_3_2 + distance_3_3 <= -1
_C151: distance_3_2 - distance_4_2 + distance_4_3 >= 0
_C152: - distance_4_2 + distance_4_3 <= -1
_C153: distance_3_2 - distance_5_2 + distance_5_3 >= 0
_C154: - distance_5_2 + distance_5_3 <= -1
_C155: - distance_0_2 + distance_0_4 + distance_4_2 >= 0
_C156: - distance_1_2 + distance_1_4 + distance_4_2 >= 0
_C157: - distance_2_2 + distance_2_4 + distance_4_2 >= 0
_C158: - distance_3_2 + distance_3_4 + distance_4_2 >= 0
_C159: 0 distance_4_2 + distance_4_4 >= 0
_C16: distance_0_0 >= 0
_C160: - distance_4_2 + distance_4_4 <= -1
_C161: distance_4_2 - distance_5_2 + distance_5_4 >= 0
_C162: - distance_5_2 + distance_5_4 <= -1
_C163: - distance_0_2 + distance_0_5 + distance_5_2 >= 0
_C164: - distance_1_2 + distance_1_5 + distance_5_2 >= 0
_C165: - distance_2_2 + distance_2_5 + distance_5_2 >= 0
_C166: - distance_3_2 + distance_3_5 + distance_5_2 >= 0
_C167: - distance_4_2 + distance_4_5 + distance_5_2 >= 0
_C168: - distance_4_2 + distance_4_5 <= -1
_C169: 0 distance_5_2 + distance_5_5 >= 0
_C17: distance_0_0 + 0 distance_1_0 >= 0
_C170: - distance_5_2 + distance_5_5 <= -1
_C171: distance_0_0 + 0 distance_0_3 >= 0
_C172: distance_0_0 - distance_0_3 <= -1
_C173: distance_0_3 + distance_1_0 - distance_1_3 >= 0
_C174: distance_1_0 - distance_1_3 <= -1
_C175: distance_0_3 + distance_2_0 - distance_2_3 >= 0
_C176: distance_0_3 + distance_3_0 - distance_3_3 >= 0
_C177: distance_0_3 + distance_4_0 - distance_4_3 >= 0
_C178: distance_0_3 + distance_5_0 - distance_5_3 >= 0
_C179: distance_0_1 - distance_0_3 + distance_1_3 >= 0
_C18: distance_0_0 + 0 distance_2_0 >= 0
_C180: distance_0_1 - distance_0_3 <= -1
_C181: distance_1_1 + 0 distance_1_3 >= 0
_C182: distance_1_1 - distance_1_3 <= -1
_C183: distance_1_3 + distance_2_1 - distance_2_3 >= 0
_C184: distance_1_3 + distance_3_1 - distance_3_3 >= 0
_C185: distance_1_3 + distance_4_1 - distance_4_3 >= 0
_C186: distance_1_3 + distance_5_1 - distance_5_3 >= 0
_C187: distance_0_2 - distance_0_3 + distance_2_3 >= 0
_C188: distance_0_2 - distance_0_3 <= -1
_C189: distance_1_2 - distance_1_3 + distance_2_3 >= 0
_C19: distance_0_0 + 0 distance_3_0 >= 0
_C190: distance_1_2 - distance_1_3 <= -1
_C191: distance_2_2 + 0 distance_2_3 >= 0
_C192: distance_2_2 - distance_2_3 <= -1
_C193: distance_2_3 + distance_3_2 - distance_3_3 >= 0
_C194: distance_2_3 + distance_4_2 - distance_4_3 >= 0
_C195: distance_2_3 + distance_5_2 - distance_5_3 >= 0
_C196: 0 distance_0_3 + distance_3_3 >= 0
_C197: 0 distance_1_3 + distance_3_3 >= 0
_C198: 0 distance_2_3 + distance_3_3 >= 0
_C199: distance_3_3 >= 0
_C2: distance_0_2 - distance_0_4 - distance_1_2 + distance_1_4 = 0
_C20: distance_0_0 + 0 distance_4_0 >= 0
_C200: distance_3_3 + 0 distance_4_3 >= 0
_C201: distance_3_3 + 0 distance_5_3 >= 0
_C202: - distance_0_3 + distance_0_4 + distance_4_3 >= 0
_C203: - distance_1_3 + distance_1_4 + distance_4_3 >= 0
_C204: - distance_2_3 + distance_2_4 + distance_4_3 >= 0
_C205: - distance_3_3 + distance_3_4 + distance_4_3 >= 0
_C206: 0 distance_4_3 + distance_4_4 >= 0
_C207: - distance_4_3 + distance_4_4 <= -1
_C208: distance_4_3 - distance_5_3 + distance_5_4 >= 0
_C209: - distance_0_3 + distance_0_5 + distance_5_3 >= 0
_C21: distance_0_0 + 0 distance_5_0 >= 0
_C210: - distance_1_3 + distance_1_5 + distance_5_3 >= 0
_C211: - distance_2_3 + distance_2_5 + distance_5_3 >= 0
_C212: - distance_3_3 + distance_3_5 + distance_5_3 >= 0
_C213: - distance_4_3 + distance_4_5 + distance_5_3 >= 0
_C214: 0 distance_5_3 + distance_5_5 >= 0
_C215: - distance_5_3 + distance_5_5 <= -1
_C216: distance_0_0 + 0 distance_0_4 >= 0
_C217: distance_0_0 - distance_0_4 <= -1
_C218: distance_0_4 + distance_1_0 - distance_1_4 >= 0
_C219: distance_1_0 - distance_1_4 <= -1
_C22: - distance_0_0 + distance_0_1 + distance_1_0 >= 0
_C220: distance_0_4 + distance_2_0 - distance_2_4 >= 0
_C221: distance_0_4 + distance_3_0 - distance_3_4 >= 0
_C222: distance_0_4 + distance_4_0 - distance_4_4 >= 0
_C223: distance_0_4 + distance_5_0 - distance_5_4 >= 0
_C224: distance_0_1 - distance_0_4 + distance_1_4 >= 0
_C225: distance_0_1 - distance_0_4 <= -1
_C226: distance_1_1 + 0 distance_1_4 >= 0
_C227: distance_1_1 - distance_1_4 <= -1
_C228: distance_1_4 + distance_2_1 - distance_2_4 >= 0
_C229: distance_1_4 + distance_3_1 - distance_3_4 >= 0
_C23: 0 distance_1_0 + distance_1_1 >= 0
_C230: distance_1_4 + distance_4_1 - distance_4_4 >= 0
_C231: distance_1_4 + distance_5_1 - distance_5_4 >= 0
_C232: distance_0_2 - distance_0_4 + distance_2_4 >= 0
_C233: distance_0_2 - distance_0_4 <= -1
_C234: distance_1_2 - distance_1_4 + distance_2_4 >= 0
_C235: distance_1_2 - distance_1_4 <= -1
_C236: distance_2_2 + 0 distance_2_4 >= 0
_C237: distance_2_2 - distance_2_4 <= -1
_C238: distance_2_4 + distance_3_2 - distance_3_4 >= 0
_C239: distance_2_4 + distance_4_2 - distance_4_4 >= 0
_C24: - distance_1_0 + distance_1_1 <= -1
_C240: distance_2_4 + distance_5_2 - distance_5_4 >= 0
_C241: distance_0_3 - distance_0_4 + distance_3_4 >= 0
_C242: distance_0_3 - distance_0_4 <= -1
_C243: distance_1_3 - distance_1_4 + distance_3_4 >= 0
_C244: distance_1_3 - distance_1_4 <= -1
_C245: distance_2_3 - distance_2_4 + distance_3_4 >= 0
_C246: distance_2_3 - distance_2_4 <= -1
_C247: distance_3_3 + 0 distance_3_4 >= 0
_C248: distance_3_3 - distance_3_4 <= -1
_C249: distance_3_4 + distance_4_3 - distance_4_4 >= 0
_C25: distance_1_0 - distance_2_0 + distance_2_1 >= 0
_C250: distance_3_4 + distance_5_3 - distance_5_4 >= 0
_C251: 0 distance_0_4 + distance_4_4 >= 0
_C252: 0 distance_1_4 + distance_4_4 >= 0
_C253: 0 distance_2_4 + distance_4_4 >= 0
_C254: 0 distance_3_4 + distance_4_4 >= 0
_C255: distance_4_4 >= 0
_C256: distance_4_4 + 0 distance_5_4 >= 0
_C257: - distance_0_4 + distance_0_5 + distance_5_4 >= 0
_C258: - distance_1_4 + distance_1_5 + distance_5_4 >= 0
_C259: - distance_2_4 + distance_2_5 + distance_5_4 >= 0
_C26: - distance_2_0 + distance_2_1 <= -1
_C260: - distance_3_4 + distance_3_5 + distance_5_4 >= 0
_C261: - distance_4_4 + distance_4_5 + distance_5_4 >= 0
_C262: 0 distance_5_4 + distance_5_5 >= 0
_C263: - distance_5_4 + distance_5_5 <= -1
_C264: distance_0_0 + 0 distance_0_5 >= 0
_C265: distance_0_0 - distance_0_5 <= -1
_C266: distance_0_5 + distance_1_0 - distance_1_5 >= 0
_C267: distance_1_0 - distance_1_5 <= -1
_C268: distance_0_5 + distance_2_0 - distance_2_5 >= 0
_C269: distance_2_0 - distance_2_5 <= -1
_C27: distance_1_0 - distance_3_0 + distance_3_1 >= 0
_C270: distance_0_5 + distance_3_0 - distance_3_5 >= 0
_C271: distance_0_5 + distance_4_0 - distance_4_5 >= 0
_C272: distance_0_5 + distance_5_0 - distance_5_5 >= 0
_C273: distance_0_1 - distance_0_5 + distance_1_5 >= 0
_C274: distance_0_1 - distance_0_5 <= -1
_C275: distance_1_1 + 0 distance_1_5 >= 0
_C276: distance_1_1 - distance_1_5 <= -1
_C277: distance_1_5 + distance_2_1 - distance_2_5 >= 0
_C278: distance_2_1 - distance_2_5 <= -1
_C279: distance_1_5 + distance_3_1 - distance_3_5 >= 0
_C28: - distance_3_0 + distance_3_1 <= -1
_C280: distance_1_5 + distance_4_1 - distance_4_5 >= 0
_C281: distance_1_5 + distance_5_1 - distance_5_5 >= 0
_C282: distance_0_2 - distance_0_5 + distance_2_5 >= 0
_C283: distance_0_2 - distance_0_5 <= -1
_C284: distance_1_2 - distance_1_5 + distance_2_5 >= 0
_C285: distance_1_2 - distance_1_5 <= -1
_C286: distance_2_2 + 0 distance_2_5 >= 0
_C287: distance_2_2 - distance_2_5 <= -1
_C288: distance_2_5 + distance_3_2 - distance_3_5 >= 0
_C289: distance_3_2 - distance_3_5 <= -1
_C29: distance_1_0 - distance_4_0 + distance_4_1 >= 0
_C290: distance_2_5 + distance_4_2 - distance_4_5 >= 0
_C291: distance_2_5 + distance_5_2 - distance_5_5 >= 0
_C292: distance_0_3 - distance_0_5 + distance_3_5 >= 0
_C293: distance_0_3 - distance_0_5 <= -1
_C294: distance_1_3 - distance_1_5 + distance_3_5 >= 0
_C295: distance_1_3 - distance_1_5 <= -1
_C296: distance_2_3 - distance_2_5 + distance_3_5 >= 0
_C297: distance_2_3 - distance_2_5 <= -1
_C298: distance_3_3 + 0 distance_3_5 >= 0
_C299: distance_3_3 - distance_3_5 <= -1
_C3: distance_0_3 - distance_0_4 - distance_1_3 + distance_1_4 = 0
_C30: - distance_4_0 + distance_4_1 <= -1
_C300: distance_3_5 + distance_4_3 - distance_4_5 >= 0
_C301: distance_4_3 - distance_4_5 <= -1
_C302: distance_3_5 + distance_5_3 - distance_5_5 >= 0
_C303: distance_0_4 - distance_0_5 + distance_4_5 >= 0
_C304: distance_0_4 - distance_0_5 <= -1
_C305: distance_1_4 - distance_1_5 + distance_4_5 >= 0
_C306: distance_1_4 - distance_1_5 <= -1
_C307: distance_2_4 - distance_2_5 + distance_4_5 >= 0
_C308: distance_2_4 - distance_2_5 <= -1
_C309: distance_3_4 - distance_3_5 + distance_4_5 >= 0
_C31: distance_1_0 - distance_5_0 + distance_5_1 >= 0
_C310: distance_3_4 - distance_3_5 <= -1
_C311: distance_4_4 + 0 distance_4_5 >= 0
_C312: distance_4_4 - distance_4_5 <= -1
_C313: distance_4_5 + distance_5_4 - distance_5_5 >= 0
_C314: 0 distance_0_5 + distance_5_5 >= 0
_C315: 0 distance_1_5 + distance_5_5 >= 0
_C316: 0 distance_2_5 + distance_5_5 >= 0
_C317: 0 distance_3_5 + distance_5_5 >= 0
_C318: 0 distance_4_5 + distance_5_5 >= 0
_C319: distance_5_5 >= 0
_C32: - distance_5_0 + distance_5_1 <= -1
_C320: distance_0_1 - distance_1_0 = 0
_C321: distance_0_2 - distance_2_0 = 0
_C322: distance_1_2 - distance_2_1 = 0
_C323: distance_0_3 - distance_3_0 = 0
_C324: distance_1_3 - distance_3_1 = 0
_C325: distance_2_3 - distance_3_2 = 0
_C326: distance_0_4 - distance_4_0 = 0
_C327: distance_1_4 - distance_4_1 = 0
_C328: distance_2_4 - distance_4_2 = 0
_C329: distance_3_4 - distance_4_3 = 0
_C33: - distance_0_0 + distance_0_2 + distance_2_0 >= 0
_C330: distance_0_5 - distance_5_0 = 0
_C331: distance_1_5 - distance_5_1 = 0
_C332: distance_2_5 - distance_5_2 = 0
_C333: distance_3_5 - distance_5_3 = 0
_C334: distance_4_5 - distance_5_4 = 0
_C34: - distance_1_0 + distance_1_2 + distance_2_0 >= 0
_C35: 0 distance_2_0 + distance_2_2 >= 0
_C36: - distance_2_0 + distance_2_2 <= -1
_C37: distance_2_0 - distance_3_0 + distance_3_2 >= 0
_C38: - distance_3_0 + distance_3_2 <= -1
_C39: distance_2_0 - distance_4_0 + distance_4_2 >= 0
_C4: distance_0_3 - distance_0_4 - distance_2_3 + distance_2_4 = 0
_C40: - distance_4_0 + distance_4_2 <= -1
_C41: distance_2_0 - distance_5_0 + distance_5_2 >= 0
_C42: - distance_5_0 + distance_5_2 <= -1
_C43: - distance_0_0 + distance_0_3 + distance_3_0 >= 0
_C44: - distance_1_0 + distance_1_3 + distance_3_0 >= 0
_C45: - distance_2_0 + distance_2_3 + distance_3_0 >= 0
_C46: - distance_2_0 + distance_2_3 <= -1
_C47: 0 distance_3_0 + distance_3_3 >= 0
_C48: - distance_3_0 + distance_3_3 <= -1
_C49: distance_3_0 - distance_4_0 + distance_4_3 >= 0
_C5: distance_1_3 - distance_1_4 - distance_2_3 + distance_2_4 = 0
_C50: - distance_4_0 + distance_4_3 <= -1
_C51: distance_3_0 - distance_5_0 + distance_5_3 >= 0
_C52: - distance_5_0 + distance_5_3 <= -1
_C53: - distance_0_0 + distance_0_4 + distance_4_0 >= 0
_C54: - distance_1_0 + distance_1_4 + distance_4_0 >= 0
_C55: - distance_2_0 + distance_2_4 + distance_4_0 >= 0
_C56: - distance_2_0 + distance_2_4 <= -1
_C57: - distance_3_0 + distance_3_4 + distance_4_0 >= 0
_C58: - distance_3_0 + distance_3_4 <= -1
_C59: 0 distance_4_0 + distance_4_4 >= 0
_C6: distance_0_2 - distance_0_5 - distance_1_2 + distance_1_5 = 0
_C60: - distance_4_0 + distance_4_4 <= -1
_C61: distance_4_0 - distance_5_0 + distance_5_4 >= 0
_C62: - distance_5_0 + distance_5_4 <= -1
_C63: - distance_0_0 + distance_0_5 + distance_5_0 >= 0
_C64: - distance_1_0 + distance_1_5 + distance_5_0 >= 0
_C65: - distance_2_0 + distance_2_5 + distance_5_0 >= 0
_C66: - distance_3_0 + distance_3_5 + distance_5_0 >= 0
_C67: - distance_3_0 + distance_3_5 <= -1
_C68: - distance_4_0 + distance_4_5 + distance_5_0 >= 0
_C69: - distance_4_0 + distance_4_5 <= -1
_C7: distance_0_3 - distance_0_5 - distance_1_3 + distance_1_5 = 0
_C70: 0 distance_5_0 + distance_5_5 >= 0
_C71: - distance_5_0 + distance_5_5 <= -1
_C72: distance_0_0 + 0 distance_0_1 >= 0
_C73: distance_0_0 - distance_0_1 <= -1
_C74: distance_0_1 + distance_1_0 - distance_1_1 >= 0
_C75: distance_0_1 + distance_2_0 - distance_2_1 >= 0
_C76: distance_0_1 + distance_3_0 - distance_3_1 >= 0
_C77: distance_0_1 + distance_4_0 - distance_4_1 >= 0
_C78: distance_0_1 + distance_5_0 - distance_5_1 >= 0
_C79: 0 distance_0_1 + distance_1_1 >= 0
_C8: distance_0_3 - distance_0_5 - distance_2_3 + distance_2_5 = 0
_C80: distance_1_1 >= 0
_C81: distance_1_1 + 0 distance_2_1 >= 0
_C82: distance_1_1 + 0 distance_3_1 >= 0
_C83: distance_1_1 + 0 distance_4_1 >= 0
_C84: distance_1_1 + 0 distance_5_1 >= 0
_C85: - distance_0_1 + distance_0_2 + distance_2_1 >= 0
_C86: - distance_1_1 + distance_1_2 + distance_2_1 >= 0
_C87: 0 distance_2_1 + distance_2_2 >= 0
_C88: - distance_2_1 + distance_2_2 <= -1
_C89: distance_2_1 - distance_3_1 + distance_3_2 >= 0
_C9: distance_1_3 - distance_1_5 - distance_2_3 + distance_2_5 = 0
_C90: - distance_3_1 + distance_3_2 <= -1
_C91: distance_2_1 - distance_4_1 + distance_4_2 >= 0
_C92: - distance_4_1 + distance_4_2 <= -1
_C93: distance_2_1 - distance_5_1 + distance_5_2 >= 0
_C94: - distance_5_1 + distance_5_2 <= -1
_C95: - distance_0_1 + distance_0_3 + distance_3_1 >= 0
_C96: - distance_1_1 + distance_1_3 + distance_3_1 >= 0
_C97: - distance_2_1 + distance_2_3 + distance_3_1 >= 0
_C98: - distance_2_1 + distance_2_3 <= -1
_C99: 0 distance_3_1 + distance_3_3 >= 0
Bounds
 __dummy = 0
End
